************************************************************************
file with basedata            : j60_59.bas
initial value random generator: 123251798
************************************************************************
projects                      :  1
jobs (incl. supersource/sink ):  62
horizon                       :  347
RESOURCES
  - renewable                 :  4   R
  - nonrenewable              :  0   N
  - doubly constrained        :  0   D
************************************************************************
PROJECT INFORMATION:
pronr.  #jobs rel.date duedate tardcost  MPM-Time
    1     60      0       69       32       69
************************************************************************
PRECEDENCE RELATIONS:
jobnr.    #modes  #successors   successors
   1        1          3           2   3   4
   2        1          3           5   7  20
   3        1          3           6  23  28
   4        1          3           9  24  27
   5        1          3          11  12  18
   6        1          3          10  17  26
   7        1          3           8  14  16
   8        1          3          13  25  53
   9        1          3          29  32  51
  10        1          3          15  22  45
  11        1          3          22  37  47
  12        1          3          19  31  35
  13        1          2          23  24
  14        1          2          27  28
  15        1          3          16  31  61
  16        1          3          37  38  48
  17        1          3          27  41  46
  18        1          3          34  38  51
  19        1          1          23
  20        1          3          21  30  32
  21        1          3          25  35  36
  22        1          3          33  43  48
  23        1          3          33  40  43
  24        1          3          26  34  39
  25        1          3          26  33  39
  26        1          3          38  40  54
  27        1          1          45
  28        1          3          34  39  58
  29        1          3          41  43  55
  30        1          3          31  35  36
  31        1          2          47  60
  32        1          2          44  49
  33        1          2          55  57
  34        1          3          37  42  54
  35        1          3          44  49  50
  36        1          3          41  46  54
  37        1          1          60
  38        1          1          60
  39        1          2          40  59
  40        1          2          42  51
  41        1          1          57
  42        1          1          46
  43        1          2          50  52
  44        1          2          45  52
  45        1          2          47  53
  46        1          1          50
  47        1          1          48
  48        1          1          59
  49        1          2          52  53
  50        1          1          56
  51        1          1          56
  52        1          1          57
  53        1          2          55  56
  54        1          1          59
  55        1          1          58
  56        1          1          61
  57        1          1          58
  58        1          1          61
  59        1          1          62
  60        1          1          62
  61        1          1          62
  62        1          0        
************************************************************************
REQUESTS/DURATIONS:
jobnr. mode duration  R 1  R 2  R 3  R 4
------------------------------------------------------------------------
  1      1     0       0    0    0    0
  2      1    10       0    3    9    5
  3      1     1       7    2    2    5
  4      1     8       8    0    6    6
  5      1     8       8    7    2    1
  6      1     3       8    0    0    0
  7      1     3      10    4    7    1
  8      1    10       6   10    1    7
  9      1     7       0    0    1    4
 10      1    10       0   10   10    2
 11      1     3       3    9    1   10
 12      1     9       9   10    1    9
 13      1     6       9    0    3    2
 14      1     9       9    2    9    5
 15      1     7       9    1    5   10
 16      1     6       0    9    1    0
 17      1     5       7    7    9    2
 18      1     1       8    0    6    4
 19      1     5       0    0    8    0
 20      1     2       0    0    2    5
 21      1     8       9    7   10    0
 22      1     4       0   10   10    1
 23      1     5       7    0    3    0
 24      1    10       0    9   10    6
 25      1     4      10    7    4    4
 26      1     9       4    7    8    0
 27      1     4       8    3    0    2
 28      1     3       7    8    9    7
 29      1    10       0    7    8    0
 30      1     7       9    6    9    6
 31      1     6       0    6    6    2
 32      1     5       0    3    5    4
 33      1     2      10    1    8    3
 34      1     5       0    4    3    6
 35      1     8      10    0    6    9
 36      1    10       0    1    6    0
 37      1     1       4    8    0    7
 38      1     3       6    4    2    1
 39      1    10       8    2    0    0
 40      1     8       0    1    4    4
 41      1     2       0   10    0    0
 42      1     1       0    1    7    0
 43      1    10       4    2    2    0
 44      1     5       3   10    2    0
 45      1     7       2    0    0    2
 46      1     4       0    0   10    9
 47      1     4       6    4    4   10
 48      1     3       0    8    4    0
 49      1    10       2    0    0   10
 50      1     2       5    3    8    9
 51      1     3      10    9    2    0
 52      1     7       4    6    0   10
 53      1    10       1   10    6    4
 54      1     7       6    1    4   10
 55      1     2       0   10    4    7
 56      1     3       5    3    0   10
 57      1     8       9    8    4    4
 58      1     6       0    0    5    0
 59      1    10       4    9    6    6
 60      1     7       2    7   10    5
 61      1     1       0    6    5    7
 62      1     0       0    0    0    0
************************************************************************
RESOURCEAVAILABILITIES:
  R 1  R 2  R 3  R 4
   46   44   42   42
************************************************************************
